WARNING: for repeatability, setting FPU to use double precision
============================[ Problem Statistics ]=============================
|                                                                             |
|  Number of variables:           100                                         |
|  Number of clauses:             449                                         |
|  Parse time:                   0.00 s                                       |
|  Simplification time:          0.00 s                                       |
|                                                                             |
============================[ Search Statistics ]==============================
| Conflicts |          ORIGINAL         |          LEARNT          | Progress |
|           |    Vars  Clauses Literals |    Limit  Clauses Lit/Cl |          |
===============================================================================
|       100 |     100      449     1347 |      164      100      7 |  0.010 % |
|       250 |     100      449     1347 |      181      165      6 |  0.021 % |
===============================================================================
restarts              : 3
conflicts             : 263            (inf /sec)
decisions             : 324            (0.00 % random) (inf /sec)
propagations          : 6032           (inf /sec)
conflict literals     : 1719           (20.12 % deleted)
Memory used           : 13.00 MB
CPU time              : 0 s

SATISFIABLE
